(set-info :smt-lib-version 2.6)
(set-logic QF_S)
(set-info :source |
Generated by: Murphy Berzish, Mitja Kulczynski, Federico Mora, Florin Manea, Joel Day, Dirk Nowotka, Vijay Ganesh, Zhengyang Lu
Generated on: 2020-10-01
Description: Translated from a collection of real-world regex queries, AutomataArk, collected by Loris D’Antoni and Fang Wang: https://github.com/lorisdanto/automatark
Application: Evaluate solvers on real-world regex queries
Target solver: Z3str3RE, CVC4, OSTRICH, Z3seq, Z3str3, Z3-Trau
Publications: Berzish, M., Kulczynski, M., Mora, F., Manea, F., Day, J. D., Nowotka, D., & Ganesh, V. (2021, July). An SMT solver for regular expressions and linear arithmetic over string length. In CAV 2021.
|)
(set-info :license "https://creativecommons.org/licenses/by/4.0/")
(set-info :category "industrial")
(set-info :status sat)

(declare-const X String)
(assert (str.in_re X (re.++ (str.to_re "<") (re.* (re.union (str.to_re " ") (str.to_re "\u{9}") (str.to_re "\u{a}") (str.to_re "\u{c}") (str.to_re "\u{d}"))) (re.opt (str.to_re "/")) (re.* (re.union (str.to_re " ") (str.to_re "\u{9}") (str.to_re "\u{a}") (str.to_re "\u{c}") (str.to_re "\u{d}"))) (re.+ (re.union (re.range "0" "9") (re.range "A" "Z") (re.range "a" "z") (str.to_re "_"))) (re.* (re.++ (re.* (re.union (str.to_re " ") (str.to_re "\u{9}") (str.to_re "\u{a}") (str.to_re "\u{c}") (str.to_re "\u{d}"))) (re.+ (re.union (re.range "0" "9") (re.range "A" "Z") (re.range "a" "z") (str.to_re "_"))) (re.* (re.union (str.to_re " ") (str.to_re "\u{9}") (str.to_re "\u{a}") (str.to_re "\u{c}") (str.to_re "\u{d}"))) (str.to_re "=") (re.* (re.union (str.to_re " ") (str.to_re "\u{9}") (str.to_re "\u{a}") (str.to_re "\u{c}") (str.to_re "\u{d}"))) (re.union (re.++ (re.union (str.to_re "'") (str.to_re "\u{22}")) (re.* (re.union (str.to_re "'") (str.to_re "\u{22}"))) (re.union (str.to_re "'") (str.to_re "\u{22}"))) (re.+ (re.union (str.to_re "#") (re.range "0" "9") (re.range "A" "Z") (re.range "a" "z") (str.to_re "_")))))) (re.* (re.union (str.to_re " ") (str.to_re "\u{9}") (str.to_re "\u{a}") (str.to_re "\u{c}") (str.to_re "\u{d}"))) (re.opt (str.to_re "/")) (re.* (re.union (str.to_re " ") (str.to_re "\u{9}") (str.to_re "\u{a}") (str.to_re "\u{c}") (str.to_re "\u{d}"))) (str.to_re ">\u{a}"))))
(assert (not (str.in_re X (re.++ (str.to_re "sips:") (re.* re.allchar) (str.to_re "@") (re.union (re.++ ((_ re.loop 1 3) (re.range "0" "9")) re.allchar ((_ re.loop 1 3) (re.range "0" "9")) re.allchar ((_ re.loop 1 3) (re.range "0" "9")) re.allchar ((_ re.loop 1 3) (re.range "0" "9"))) (re.++ (re.+ (re.union (re.range "a" "z") (re.range "A" "Z") (str.to_re "-") (str.to_re "."))) (str.to_re ".") ((_ re.loop 2 5) (re.union (re.range "a" "z") (re.range "A" "Z"))))) (re.opt (re.++ (str.to_re ":") ((_ re.loop 1 5) (re.range "0" "9")))) (re.opt (re.+ (re.union (str.to_re "-") (str.to_re "?") (str.to_re "@") (str.to_re ";") (str.to_re ",") (str.to_re "=") (str.to_re "%") (str.to_re "&") (re.range "0" "9") (re.range "A" "Z") (re.range "a" "z") (str.to_re "_")))) (str.to_re "\u{a}")))))
(assert (not (str.in_re X (re.++ (str.to_re "//1020") ((_ re.loop 6 16) (re.range "0" "9")) (str.to_re "/U\u{a}")))))
(assert (not (str.in_re X (re.++ (re.opt (re.union (str.to_re "+") (str.to_re "-"))) (re.* (str.to_re " ")) (re.opt (str.to_re "$")) (re.* (str.to_re " ")) (re.union (re.+ (re.range "0" "9")) (re.++ ((_ re.loop 1 3) (re.range "0" "9")) (re.* (re.++ (str.to_re ",") ((_ re.loop 3 3) (re.range "0" "9")))))) (re.opt (re.++ (str.to_re ".") ((_ re.loop 0 2) (re.range "0" "9")))) (str.to_re "\u{a}")))))
(assert (not (str.in_re X (re.++ (str.to_re "qr/") (re.union (str.to_re "Alabama") (str.to_re "Alaska") (str.to_re "Arizona") (str.to_re "Arkansas") (str.to_re "California") (str.to_re "Colorado") (str.to_re "Connecticut") (str.to_re "Delaware") (str.to_re "Florida") (str.to_re "Georgia") (str.to_re "Hawaii") (str.to_re "Idaho") (str.to_re "Illinois") (str.to_re "Indiana") (str.to_re "Iowa") (str.to_re "Kansas") (str.to_re "Kentucky") (str.to_re "Louisiana") (str.to_re "Maine") (str.to_re "Maryland") (str.to_re "Massachusetts") (str.to_re "Michigan") (str.to_re "Minnesota") (str.to_re "Mississippi") (str.to_re "Missouri") (str.to_re "Montana") (str.to_re "Nebraska") (str.to_re "Nevada") (re.++ (str.to_re "New") (re.union (str.to_re " ") (str.to_re "\u{9}") (str.to_re "\u{a}") (str.to_re "\u{c}") (str.to_re "\u{d}")) (str.to_re "Hampshire")) (re.++ (str.to_re "New") (re.union (str.to_re " ") (str.to_re "\u{9}") (str.to_re "\u{a}") (str.to_re "\u{c}") (str.to_re "\u{d}")) (str.to_re "Jersey")) (re.++ (str.to_re "New") (re.union (str.to_re " ") (str.to_re "\u{9}") (str.to_re "\u{a}") (str.to_re "\u{c}") (str.to_re "\u{d}")) (str.to_re "Mexico")) (re.++ (str.to_re "New") (re.union (str.to_re " ") (str.to_re "\u{9}") (str.to_re "\u{a}") (str.to_re "\u{c}") (str.to_re "\u{d}")) (str.to_re "York")) (re.++ (str.to_re "North") (re.union (str.to_re " ") (str.to_re "\u{9}") (str.to_re "\u{a}") (str.to_re "\u{c}") (str.to_re "\u{d}")) (str.to_re "Carolina")) (re.++ (str.to_re "North") (re.union (str.to_re " ") (str.to_re "\u{9}") (str.to_re "\u{a}") (str.to_re "\u{c}") (str.to_re "\u{d}")) (str.to_re "Dakota")) (str.to_re "Ohio") (str.to_re "Oklahoma") (str.to_re "Oregon") (str.to_re "Pennsylvania") (re.++ (str.to_re "Rhode") (re.union (str.to_re " ") (str.to_re "\u{9}") (str.to_re "\u{a}") (str.to_re "\u{c}") (str.to_re "\u{d}")) (str.to_re "Island")) (re.++ (str.to_re "South") (re.union (str.to_re " ") (str.to_re "\u{9}") (str.to_re "\u{a}") (str.to_re "\u{c}") (str.to_re "\u{d}")) (str.to_re "Carolina")) (re.++ (str.to_re "South") (re.union (str.to_re " ") (str.to_re "\u{9}") (str.to_re "\u{a}") (str.to_re "\u{c}") (str.to_re "\u{d}")) (str.to_re "Dakota")) (str.to_re "Tennessee") (str.to_re "Texas") (str.to_re "Utah") (str.to_re "Vermont") (str.to_re "Virginia") (str.to_re "Washington") (re.++ (str.to_re "West") (re.union (str.to_re " ") (str.to_re "\u{9}") (str.to_re "\u{a}") (str.to_re "\u{c}") (str.to_re "\u{d}")) (str.to_re "Virginia")) (str.to_re "Wisconsin") (str.to_re "Wyoming")) (str.to_re "/\u{a}")))))
(check-sat)

(exit)
